p wcnf 400 1400
w -2 0.367879 0
w 2 2.718282 0
w -3 0.367879 0
w 3 2.718282 0
w -4 0.367879 0
w 4 2.718282 0
w -5 0.367879 0
w 5 2.718282 0
w -6 0.367879 0
w 6 2.718282 0
w -7 0.367879 0
w 7 2.718282 0
w -8 0.367879 0
w 8 2.718282 0
w -9 0.367879 0
w 9 2.718282 0
w -10 0.367879 0
w 10 2.718282 0
w -11 0.367879 0
w 11 2.718282 0
w -12 0.367879 0
w 12 2.718282 0
w -13 0.367879 0
w 13 2.718282 0
w -14 0.367879 0
w 14 2.718282 0
w -15 0.367879 0
w 15 2.718282 0
w -16 0.367879 0
w 16 2.718282 0
w -17 0.367879 0
w 17 2.718282 0
w -18 0.367879 0
w 18 2.718282 0
w -19 0.367879 0
w 19 2.718282 0
w -21 0.367879 0
w 21 2.718282 0
w -22 0.367879 0
w 22 2.718282 0
w -23 0.367879 0
w 23 2.718282 0
w -24 0.367879 0
w 24 2.718282 0
w -25 0.367879 0
w 25 2.718282 0
w -26 0.367879 0
w 26 2.718282 0
w -27 0.367879 0
w 27 2.718282 0
w -28 0.367879 0
w 28 2.718282 0
w -29 0.367879 0
w 29 2.718282 0
w -30 0.367879 0
w 30 2.718282 0
w -32 0.367879 0
w 32 2.718282 0
w -33 0.367879 0
w 33 2.718282 0
w -34 0.367879 0
w 34 2.718282 0
w -35 0.367879 0
w 35 2.718282 0
w -36 0.367879 0
w 36 2.718282 0
w -37 0.367879 0
w 37 2.718282 0
w -38 0.367879 0
w 38 2.718282 0
w -39 0.367879 0
w 39 2.718282 0
w -40 0.367879 0
w 40 2.718282 0
w -41 0.367879 0
w 41 2.718282 0
w -42 0.367879 0
w 42 2.718282 0
w -43 0.367879 0
w 43 2.718282 0
w -44 0.367879 0
w 44 2.718282 0
w -45 0.367879 0
w 45 2.718282 0
w -47 0.367879 0
w 47 2.718282 0
w -48 0.367879 0
w 48 2.718282 0
w -49 0.367879 0
w 49 2.718282 0
w -50 0.367879 0
w 50 2.718282 0
w -51 0.367879 0
w 51 2.718282 0
w -52 0.367879 0
w 52 2.718282 0
w -53 0.367879 0
w 53 2.718282 0
w -54 0.367879 0
w 54 2.718282 0
w -55 0.367879 0
w 55 2.718282 0
w -56 0.367879 0
w 56 2.718282 0
w -57 0.367879 0
w 57 2.718282 0
w -58 0.367879 0
w 58 2.718282 0
w -59 0.367879 0
w 59 2.718282 0
w -61 0.367879 0
w 61 2.718282 0
w -62 0.367879 0
w 62 2.718282 0
w -63 0.367879 0
w 63 2.718282 0
w -64 0.367879 0
w 64 2.718282 0
w -65 0.367879 0
w 65 2.718282 0
w -66 0.367879 0
w 66 2.718282 0
w -67 0.367879 0
w 67 2.718282 0
w -68 0.367879 0
w 68 2.718282 0
w -69 0.367879 0
w 69 2.718282 0
w -70 0.367879 0
w 70 2.718282 0
w -71 0.367879 0
w 71 2.718282 0
w -72 0.367879 0
w 72 2.718282 0
w -73 0.367879 0
w 73 2.718282 0
w -74 0.367879 0
w 74 2.718282 0
w -76 0.367879 0
w 76 2.718282 0
w -77 0.367879 0
w 77 2.718282 0
w -78 0.367879 0
w 78 2.718282 0
w -79 0.367879 0
w 79 2.718282 0
w -80 0.367879 0
w 80 2.718282 0
w -81 0.367879 0
w 81 2.718282 0
w -82 0.367879 0
w 82 2.718282 0
w -83 0.367879 0
w 83 2.718282 0
w -84 0.367879 0
w 84 2.718282 0
w -85 0.367879 0
w 85 2.718282 0
w -86 0.367879 0
w 86 2.718282 0
w -87 0.367879 0
w 87 2.718282 0
w -89 0.367879 0
w 89 2.718282 0
w -90 0.367879 0
w 90 2.718282 0
w -91 0.367879 0
w 91 2.718282 0
w -92 0.367879 0
w 92 2.718282 0
w -94 0.367879 0
w 94 2.718282 0
w -95 0.367879 0
w 95 2.718282 0
w -96 0.367879 0
w 96 2.718282 0
w -97 0.367879 0
w 97 2.718282 0
w -98 0.367879 0
w 98 2.718282 0
w -99 0.367879 0
w 99 2.718282 0
w -100 0.367879 0
w 100 2.718282 0
w -101 0.367879 0
w 101 2.718282 0
w -102 0.367879 0
w 102 2.718282 0
w -103 0.367879 0
w 103 2.718282 0
w -104 0.367879 0
w 104 2.718282 0
w -105 0.367879 0
w 105 2.718282 0
w -106 0.367879 0
w 106 2.718282 0
w -107 0.367879 0
w 107 2.718282 0
w -108 0.367879 0
w 108 2.718282 0
w -109 0.367879 0
w 109 2.718282 0
w -111 0.367879 0
w 111 2.718282 0
w -112 0.367879 0
w 112 2.718282 0
w -113 0.367879 0
w 113 2.718282 0
w -114 0.367879 0
w 114 2.718282 0
w -115 0.367879 0
w 115 2.718282 0
w -116 0.367879 0
w 116 2.718282 0
w -117 0.367879 0
w 117 2.718282 0
w -118 0.367879 0
w 118 2.718282 0
w -119 0.367879 0
w 119 2.718282 0
w -120 0.367879 0
w 120 2.718282 0
w -121 0.367879 0
w 121 2.718282 0
w -122 0.367879 0
w 122 2.718282 0
w -123 0.367879 0
w 123 2.718282 0
w -124 0.367879 0
w 124 2.718282 0
w -125 0.367879 0
w 125 2.718282 0
w -126 0.367879 0
w 126 2.718282 0
w -127 0.367879 0
w 127 2.718282 0
w -129 0.367879 0
w 129 2.718282 0
w -130 0.367879 0
w 130 2.718282 0
w -131 0.367879 0
w 131 2.718282 0
w -132 0.367879 0
w 132 2.718282 0
w -133 0.367879 0
w 133 2.718282 0
w -134 0.367879 0
w 134 2.718282 0
w -135 0.367879 0
w 135 2.718282 0
w -136 0.367879 0
w 136 2.718282 0
w -137 0.367879 0
w 137 2.718282 0
w -138 0.367879 0
w 138 2.718282 0
w -139 0.367879 0
w 139 2.718282 0
w -141 0.367879 0
w 141 2.718282 0
w -142 0.367879 0
w 142 2.718282 0
w -143 0.367879 0
w 143 2.718282 0
w -144 0.367879 0
w 144 2.718282 0
w -145 0.367879 0
w 145 2.718282 0
w -146 0.367879 0
w 146 2.718282 0
w -147 0.367879 0
w 147 2.718282 0
w -148 0.367879 0
w 148 2.718282 0
w -150 0.367879 0
w 150 2.718282 0
w -151 0.367879 0
w 151 2.718282 0
w -152 0.367879 0
w 152 2.718282 0
w -153 0.367879 0
w 153 2.718282 0
w -154 0.367879 0
w 154 2.718282 0
w -155 0.367879 0
w 155 2.718282 0
w -156 0.367879 0
w 156 2.718282 0
w -157 0.367879 0
w 157 2.718282 0
w -158 0.367879 0
w 158 2.718282 0
w -159 0.367879 0
w 159 2.718282 0
w -160 0.367879 0
w 160 2.718282 0
w -161 0.367879 0
w 161 2.718282 0
w -163 0.367879 0
w 163 2.718282 0
w -164 0.367879 0
w 164 2.718282 0
w -165 0.367879 0
w 165 2.718282 0
w -166 0.367879 0
w 166 2.718282 0
w -167 0.367879 0
w 167 2.718282 0
w -168 0.367879 0
w 168 2.718282 0
w -169 0.367879 0
w 169 2.718282 0
w -170 0.367879 0
w 170 2.718282 0
w -171 0.367879 0
w 171 2.718282 0
w -172 0.367879 0
w 172 2.718282 0
w -173 0.367879 0
w 173 2.718282 0
w -174 0.367879 0
w 174 2.718282 0
w -175 0.367879 0
w 175 2.718282 0
w -177 0.367879 0
w 177 2.718282 0
w -178 0.367879 0
w 178 2.718282 0
w -179 0.367879 0
w 179 2.718282 0
w -180 0.367879 0
w 180 2.718282 0
w -181 0.367879 0
w 181 2.718282 0
w -183 0.367879 0
w 183 2.718282 0
w -184 0.367879 0
w 184 2.718282 0
w -185 0.367879 0
w 185 2.718282 0
w -186 0.367879 0
w 186 2.718282 0
w -187 0.367879 0
w 187 2.718282 0
w -188 0.367879 0
w 188 2.718282 0
w -189 0.367879 0
w 189 2.718282 0
w -190 0.367879 0
w 190 2.718282 0
w -191 0.367879 0
w 191 2.718282 0
w -192 0.367879 0
w 192 2.718282 0
w -193 0.367879 0
w 193 2.718282 0
w -194 0.367879 0
w 194 2.718282 0
w -195 0.367879 0
w 195 2.718282 0
w -197 0.367879 0
w 197 2.718282 0
w -198 0.367879 0
w 198 2.718282 0
w -199 0.367879 0
w 199 2.718282 0
w -200 0.367879 0
w 200 2.718282 0
w -201 0.367879 0
w 201 2.718282 0
w -202 0.367879 0
w 202 2.718282 0
w -203 0.367879 0
w 203 2.718282 0
w -205 0.367879 0
w 205 2.718282 0
w -206 0.367879 0
w 206 2.718282 0
w -207 0.367879 0
w 207 2.718282 0
w -208 0.367879 0
w 208 2.718282 0
w -209 0.367879 0
w 209 2.718282 0
w -210 0.367879 0
w 210 2.718282 0
w -211 0.367879 0
w 211 2.718282 0
w -212 0.367879 0
w 212 2.718282 0
w -214 0.367879 0
w 214 2.718282 0
w -215 0.367879 0
w 215 2.718282 0
w -216 0.367879 0
w 216 2.718282 0
w -217 0.367879 0
w 217 2.718282 0
w -218 0.367879 0
w 218 2.718282 0
w -219 0.367879 0
w 219 2.718282 0
w -220 0.367879 0
w 220 2.718282 0
w -221 0.367879 0
w 221 2.718282 0
w -222 0.367879 0
w 222 2.718282 0
w -223 0.367879 0
w 223 2.718282 0
w -224 0.367879 0
w 224 2.718282 0
w -226 0.367879 0
w 226 2.718282 0
w -227 0.367879 0
w 227 2.718282 0
w -228 0.367879 0
w 228 2.718282 0
w -229 0.367879 0
w 229 2.718282 0
w -230 0.367879 0
w 230 2.718282 0
w -231 0.367879 0
w 231 2.718282 0
w -232 0.367879 0
w 232 2.718282 0
w -233 0.367879 0
w 233 2.718282 0
w -234 0.367879 0
w 234 2.718282 0
w -235 0.367879 0
w 235 2.718282 0
w -236 0.367879 0
w 236 2.718282 0
w -237 0.367879 0
w 237 2.718282 0
w -239 0.367879 0
w 239 2.718282 0
w -240 0.367879 0
w 240 2.718282 0
w -241 0.367879 0
w 241 2.718282 0
w -242 0.367879 0
w 242 2.718282 0
w -243 0.367879 0
w 243 2.718282 0
w -244 0.367879 0
w 244 2.718282 0
w -245 0.367879 0
w 245 2.718282 0
w -246 0.367879 0
w 246 2.718282 0
w -247 0.367879 0
w 247 2.718282 0
w -248 0.367879 0
w 248 2.718282 0
w -249 0.367879 0
w 249 2.718282 0
w -251 0.367879 0
w 251 2.718282 0
w -252 0.367879 0
w 252 2.718282 0
w -253 0.367879 0
w 253 2.718282 0
w -254 0.367879 0
w 254 2.718282 0
w -255 0.367879 0
w 255 2.718282 0
w -256 0.367879 0
w 256 2.718282 0
w -257 0.367879 0
w 257 2.718282 0
w -259 0.367879 0
w 259 2.718282 0
w -260 0.367879 0
w 260 2.718282 0
w -261 0.367879 0
w 261 2.718282 0
w -262 0.367879 0
w 262 2.718282 0
w -263 0.367879 0
w 263 2.718282 0
w -264 0.367879 0
w 264 2.718282 0
w -266 0.367879 0
w 266 2.718282 0
w -267 0.367879 0
w 267 2.718282 0
w -268 0.367879 0
w 268 2.718282 0
w -269 0.367879 0
w 269 2.718282 0
w -270 0.367879 0
w 270 2.718282 0
w -271 0.367879 0
w 271 2.718282 0
w -273 0.367879 0
w 273 2.718282 0
w -274 0.367879 0
w 274 2.718282 0
w -275 0.367879 0
w 275 2.718282 0
w -276 0.367879 0
w 276 2.718282 0
w -277 0.367879 0
w 277 2.718282 0
w -279 0.367879 0
w 279 2.718282 0
w -280 0.367879 0
w 280 2.718282 0
w -281 0.367879 0
w 281 2.718282 0
w -282 0.367879 0
w 282 2.718282 0
w -283 0.367879 0
w 283 2.718282 0
w -284 0.367879 0
w 284 2.718282 0
w -285 0.367879 0
w 285 2.718282 0
w -287 0.367879 0
w 287 2.718282 0
w -288 0.367879 0
w 288 2.718282 0
w -289 0.367879 0
w 289 2.718282 0
w -290 0.367879 0
w 290 2.718282 0
w -292 0.367879 0
w 292 2.718282 0
w -293 0.367879 0
w 293 2.718282 0
w -294 0.367879 0
w 294 2.718282 0
w -295 0.367879 0
w 295 2.718282 0
w -296 0.367879 0
w 296 2.718282 0
w -297 0.367879 0
w 297 2.718282 0
w -298 0.367879 0
w 298 2.718282 0
w -299 0.367879 0
w 299 2.718282 0
w -300 0.367879 0
w 300 2.718282 0
w -302 0.367879 0
w 302 2.718282 0
w -303 0.367879 0
w 303 2.718282 0
w -304 0.367879 0
w 304 2.718282 0
w -305 0.367879 0
w 305 2.718282 0
w -306 0.367879 0
w 306 2.718282 0
w -307 0.367879 0
w 307 2.718282 0
w -309 0.367879 0
w 309 2.718282 0
w -310 0.367879 0
w 310 2.718282 0
w -311 0.367879 0
w 311 2.718282 0
w -312 0.367879 0
w 312 2.718282 0
w -314 0.367879 0
w 314 2.718282 0
w -315 0.367879 0
w 315 2.718282 0
w -316 0.367879 0
w 316 2.718282 0
w -318 0.367879 0
w 318 2.718282 0
w -319 0.367879 0
w 319 2.718282 0
w -320 0.367879 0
w 320 2.718282 0
w -321 0.367879 0
w 321 2.718282 0
w -322 0.367879 0
w 322 2.718282 0
w -323 0.367879 0
w 323 2.718282 0
w -324 0.367879 0
w 324 2.718282 0
w -325 0.367879 0
w 325 2.718282 0
w -327 0.367879 0
w 327 2.718282 0
w -328 0.367879 0
w 328 2.718282 0
w -329 0.367879 0
w 329 2.718282 0
w -330 0.367879 0
w 330 2.718282 0
w -331 0.367879 0
w 331 2.718282 0
w -332 0.367879 0
w 332 2.718282 0
w -333 0.367879 0
w 333 2.718282 0
w -334 0.367879 0
w 334 2.718282 0
w -335 0.367879 0
w 335 2.718282 0
w -336 0.367879 0
w 336 2.718282 0
w -337 0.367879 0
w 337 2.718282 0
w -338 0.367879 0
w 338 2.718282 0
w -340 0.367879 0
w 340 2.718282 0
w -341 0.367879 0
w 341 2.718282 0
w -342 0.367879 0
w 342 2.718282 0
w -343 0.367879 0
w 343 2.718282 0
w -344 0.367879 0
w 344 2.718282 0
w -345 0.367879 0
w 345 2.718282 0
w -347 0.367879 0
w 347 2.718282 0
w -348 0.367879 0
w 348 2.718282 0
w -349 0.367879 0
w 349 2.718282 0
w -350 0.367879 0
w 350 2.718282 0
w -352 0.367879 0
w 352 2.718282 0
w -353 0.367879 0
w 353 2.718282 0
w -354 0.367879 0
w 354 2.718282 0
w -355 0.367879 0
w 355 2.718282 0
w -356 0.367879 0
w 356 2.718282 0
w -357 0.367879 0
w 357 2.718282 0
w -359 0.367879 0
w 359 2.718282 0
w -360 0.367879 0
w 360 2.718282 0
w -361 0.367879 0
w 361 2.718282 0
w -363 0.367879 0
w 363 2.718282 0
w -364 0.367879 0
w 364 2.718282 0
w -366 0.367879 0
w 366 2.718282 0
w -367 0.367879 0
w 367 2.718282 0
w -368 0.367879 0
w 368 2.718282 0
w -369 0.367879 0
w 369 2.718282 0
w -371 0.367879 0
w 371 2.718282 0
w -372 0.367879 0
w 372 2.718282 0
w -373 0.367879 0
w 373 2.718282 0
w -375 0.367879 0
w 375 2.718282 0
w -376 0.367879 0
w 376 2.718282 0
w -377 0.367879 0
w 377 2.718282 0
w -379 0.367879 0
w 379 2.718282 0
w -380 0.367879 0
w 380 2.718282 0
w -382 0.367879 0
w 382 2.718282 0
w -384 0.367879 0
w 384 2.718282 0
w -385 0.367879 0
w 385 2.718282 0
w -387 0.367879 0
w 387 2.718282 0
w -389 0.367879 0
w 389 2.718282 0
w -390 0.367879 0
w 390 2.718282 0
w -392 0.367879 0
w 392 2.718282 0
w -393 0.367879 0
w 393 2.718282 0
w -395 0.367879 0
w 395 2.718282 0
w -397 0.367879 0
w 397 2.718282 0
w -399 0.367879 0
w 399 2.718282 0
2 1 20 0
2 -1 -20 0
-2 1 -20 0
-2 -1 20 0
3 1 46 0
3 -1 -46 0
-3 1 -46 0
-3 -1 46 0
4 1 93 0
4 -1 -93 0
-4 1 -93 0
-4 -1 93 0
5 1 140 0
5 -1 -140 0
-5 1 -140 0
-5 -1 140 0
6 1 204 0
6 -1 -204 0
-6 1 -204 0
-6 -1 204 0
7 1 238 0
7 -1 -238 0
-7 1 -238 0
-7 -1 238 0
8 1 250 0
8 -1 -250 0
-8 1 -250 0
-8 -1 250 0
9 1 265 0
9 -1 -265 0
-9 1 -265 0
-9 -1 265 0
10 1 272 0
10 -1 -272 0
-10 1 -272 0
-10 -1 272 0
11 1 291 0
11 -1 -291 0
-11 1 -291 0
-11 -1 291 0
12 1 326 0
12 -1 -326 0
-12 1 -326 0
-12 -1 326 0
13 1 339 0
13 -1 -339 0
-13 1 -339 0
-13 -1 339 0
14 1 358 0
14 -1 -358 0
-14 1 -358 0
-14 -1 358 0
15 1 374 0
15 -1 -374 0
-15 1 -374 0
-15 -1 374 0
16 1 378 0
16 -1 -378 0
-16 1 -378 0
-16 -1 378 0
17 1 391 0
17 -1 -391 0
-17 1 -391 0
-17 -1 391 0
18 1 394 0
18 -1 -394 0
-18 1 -394 0
-18 -1 394 0
19 1 398 0
19 -1 -398 0
-19 1 -398 0
-19 -1 398 0
21 20 75 0
21 -20 -75 0
-21 20 -75 0
-21 -20 75 0
22 20 196 0
22 -20 -196 0
-22 20 -196 0
-22 -20 196 0
23 20 225 0
23 -20 -225 0
-23 20 -225 0
-23 -20 225 0
24 20 250 0
24 -20 -250 0
-24 20 -250 0
-24 -20 250 0
25 20 265 0
25 -20 -265 0
-25 20 -265 0
-25 -20 265 0
26 20 362 0
26 -20 -362 0
-26 20 -362 0
-26 -20 362 0
27 20 370 0
27 -20 -370 0
-27 20 -370 0
-27 -20 370 0
28 20 374 0
28 -20 -374 0
-28 20 -374 0
-28 -20 374 0
29 20 386 0
29 -20 -386 0
-29 20 -386 0
-29 -20 386 0
30 20 391 0
30 -20 -391 0
-30 20 -391 0
-30 -20 391 0
32 31 46 0
32 -31 -46 0
-32 31 -46 0
-32 -31 46 0
33 31 60 0
33 -31 -60 0
-33 31 -60 0
-33 -31 60 0
34 31 110 0
34 -31 -110 0
-34 31 -110 0
-34 -31 110 0
35 31 128 0
35 -31 -128 0
-35 31 -128 0
-35 -31 128 0
36 31 140 0
36 -31 -140 0
-36 31 -140 0
-36 -31 140 0
37 31 149 0
37 -31 -149 0
-37 31 -149 0
-37 -31 149 0
38 31 238 0
38 -31 -238 0
-38 31 -238 0
-38 -31 238 0
39 31 272 0
39 -31 -272 0
-39 31 -272 0
-39 -31 272 0
40 31 278 0
40 -31 -278 0
-40 31 -278 0
-40 -31 278 0
41 31 308 0
41 -31 -308 0
-41 31 -308 0
-41 -31 308 0
42 31 346 0
42 -31 -346 0
-42 31 -346 0
-42 -31 346 0
43 31 370 0
43 -31 -370 0
-43 31 -370 0
-43 -31 370 0
44 31 394 0
44 -31 -394 0
-44 31 -394 0
-44 -31 394 0
45 31 398 0
45 -31 -398 0
-45 31 -398 0
-45 -31 398 0
47 46 60 0
47 -46 -60 0
-47 46 -60 0
-47 -46 60 0
48 46 110 0
48 -46 -110 0
-48 46 -110 0
-48 -46 110 0
49 46 128 0
49 -46 -128 0
-49 46 -128 0
-49 -46 128 0
50 46 140 0
50 -46 -140 0
-50 46 -140 0
-50 -46 140 0
51 46 204 0
51 -46 -204 0
-51 46 -204 0
-51 -46 204 0
52 46 238 0
52 -46 -238 0
-52 46 -238 0
-52 -46 238 0
53 46 250 0
53 -46 -250 0
-53 46 -250 0
-53 -46 250 0
54 46 339 0
54 -46 -339 0
-54 46 -339 0
-54 -46 339 0
55 46 346 0
55 -46 -346 0
-55 46 -346 0
-55 -46 346 0
56 46 351 0
56 -46 -351 0
-56 46 -351 0
-56 -46 351 0
57 46 370 0
57 -46 -370 0
-57 46 -370 0
-57 -46 370 0
58 46 388 0
58 -46 -388 0
-58 46 -388 0
-58 -46 388 0
59 46 391 0
59 -46 -391 0
-59 46 -391 0
-59 -46 391 0
61 60 75 0
61 -60 -75 0
-61 60 -75 0
-61 -60 75 0
62 60 88 0
62 -60 -88 0
-62 60 -88 0
-62 -60 88 0
63 60 93 0
63 -60 -93 0
-63 60 -93 0
-63 -60 93 0
64 60 128 0
64 -60 -128 0
-64 60 -128 0
-64 -60 128 0
65 60 196 0
65 -60 -196 0
-65 60 -196 0
-65 -60 196 0
66 60 250 0
66 -60 -250 0
-66 60 -250 0
-66 -60 250 0
67 60 265 0
67 -60 -265 0
-67 60 -265 0
-67 -60 265 0
68 60 278 0
68 -60 -278 0
-68 60 -278 0
-68 -60 278 0
69 60 339 0
69 -60 -339 0
-69 60 -339 0
-69 -60 339 0
70 60 346 0
70 -60 -346 0
-70 60 -346 0
-70 -60 346 0
71 60 381 0
71 -60 -381 0
-71 60 -381 0
-71 -60 381 0
72 60 383 0
72 -60 -383 0
-72 60 -383 0
-72 -60 383 0
73 60 386 0
73 -60 -386 0
-73 60 -386 0
-73 -60 386 0
74 60 391 0
74 -60 -391 0
-74 60 -391 0
-74 -60 391 0
76 75 176 0
76 -75 -176 0
-76 75 -176 0
-76 -75 176 0
77 75 182 0
77 -75 -182 0
-77 75 -182 0
-77 -75 182 0
78 75 250 0
78 -75 -250 0
-78 75 -250 0
-78 -75 250 0
79 75 272 0
79 -75 -272 0
-79 75 -272 0
-79 -75 272 0
80 75 286 0
80 -75 -286 0
-80 75 -286 0
-80 -75 286 0
81 75 301 0
81 -75 -301 0
-81 75 -301 0
-81 -75 301 0
82 75 326 0
82 -75 -326 0
-82 75 -326 0
-82 -75 326 0
83 75 339 0
83 -75 -339 0
-83 75 -339 0
-83 -75 339 0
84 75 378 0
84 -75 -378 0
-84 75 -378 0
-84 -75 378 0
85 75 396 0
85 -75 -396 0
-85 75 -396 0
-85 -75 396 0
86 75 398 0
86 -75 -398 0
-86 75 -398 0
-86 -75 398 0
87 75 400 0
87 -75 -400 0
-87 75 -400 0
-87 -75 400 0
89 88 204 0
89 -88 -204 0
-89 88 -204 0
-89 -88 204 0
90 88 301 0
90 -88 -301 0
-90 88 -301 0
-90 -88 301 0
91 88 351 0
91 -88 -351 0
-91 88 -351 0
-91 -88 351 0
92 88 383 0
92 -88 -383 0
-92 88 -383 0
-92 -88 383 0
94 93 128 0
94 -93 -128 0
-94 93 -128 0
-94 -93 128 0
95 93 162 0
95 -93 -162 0
-95 93 -162 0
-95 -93 162 0
96 93 176 0
96 -93 -176 0
-96 93 -176 0
-96 -93 176 0
97 93 204 0
97 -93 -204 0
-97 93 -204 0
-97 -93 204 0
98 93 250 0
98 -93 -250 0
-98 93 -250 0
-98 -93 250 0
99 93 265 0
99 -93 -265 0
-99 93 -265 0
-99 -93 265 0
100 93 272 0
100 -93 -272 0
-100 93 -272 0
-100 -93 272 0
101 93 278 0
101 -93 -278 0
-101 93 -278 0
-101 -93 278 0
102 93 286 0
102 -93 -286 0
-102 93 -286 0
-102 -93 286 0
103 93 313 0
103 -93 -313 0
-103 93 -313 0
-103 -93 313 0
104 93 346 0
104 -93 -346 0
-104 93 -346 0
-104 -93 346 0
105 93 383 0
105 -93 -383 0
-105 93 -383 0
-105 -93 383 0
106 93 388 0
106 -93 -388 0
-106 93 -388 0
-106 -93 388 0
107 93 391 0
107 -93 -391 0
-107 93 -391 0
-107 -93 391 0
108 93 394 0
108 -93 -394 0
-108 93 -394 0
-108 -93 394 0
109 93 398 0
109 -93 -398 0
-109 93 -398 0
-109 -93 398 0
111 110 128 0
111 -110 -128 0
-111 110 -128 0
-111 -110 128 0
112 110 140 0
112 -110 -140 0
-112 110 -140 0
-112 -110 140 0
113 110 149 0
113 -110 -149 0
-113 110 -149 0
-113 -110 149 0
114 110 162 0
114 -110 -162 0
-114 110 -162 0
-114 -110 162 0
115 110 196 0
115 -110 -196 0
-115 110 -196 0
-115 -110 196 0
116 110 204 0
116 -110 -204 0
-116 110 -204 0
-116 -110 204 0
117 110 238 0
117 -110 -238 0
-117 110 -238 0
-117 -110 238 0
118 110 250 0
118 -110 -250 0
-118 110 -250 0
-118 -110 250 0
119 110 272 0
119 -110 -272 0
-119 110 -272 0
-119 -110 272 0
120 110 291 0
120 -110 -291 0
-120 110 -291 0
-120 -110 291 0
121 110 308 0
121 -110 -308 0
-121 110 -308 0
-121 -110 308 0
122 110 326 0
122 -110 -326 0
-122 110 -326 0
-122 -110 326 0
123 110 362 0
123 -110 -362 0
-123 110 -362 0
-123 -110 362 0
124 110 365 0
124 -110 -365 0
-124 110 -365 0
-124 -110 365 0
125 110 391 0
125 -110 -391 0
-125 110 -391 0
-125 -110 391 0
126 110 394 0
126 -110 -394 0
-126 110 -394 0
-126 -110 394 0
127 110 396 0
127 -110 -396 0
-127 110 -396 0
-127 -110 396 0
129 128 140 0
129 -128 -140 0
-129 128 -140 0
-129 -128 140 0
130 128 213 0
130 -128 -213 0
-130 128 -213 0
-130 -128 213 0
131 128 278 0
131 -128 -278 0
-131 128 -278 0
-131 -128 278 0
132 128 313 0
132 -128 -313 0
-132 128 -313 0
-132 -128 313 0
133 128 326 0
133 -128 -326 0
-133 128 -326 0
-133 -128 326 0
134 128 365 0
134 -128 -365 0
-134 128 -365 0
-134 -128 365 0
135 128 370 0
135 -128 -370 0
-135 128 -370 0
-135 -128 370 0
136 128 381 0
136 -128 -381 0
-136 128 -381 0
-136 -128 381 0
137 128 386 0
137 -128 -386 0
-137 128 -386 0
-137 -128 386 0
138 128 394 0
138 -128 -394 0
-138 128 -394 0
-138 -128 394 0
139 128 396 0
139 -128 -396 0
-139 128 -396 0
-139 -128 396 0
141 140 149 0
141 -140 -149 0
-141 140 -149 0
-141 -140 149 0
142 140 204 0
142 -140 -204 0
-142 140 -204 0
-142 -140 204 0
143 140 213 0
143 -140 -213 0
-143 140 -213 0
-143 -140 213 0
144 140 250 0
144 -140 -250 0
-144 140 -250 0
-144 -140 250 0
145 140 272 0
145 -140 -272 0
-145 140 -272 0
-145 -140 272 0
146 140 346 0
146 -140 -346 0
-146 140 -346 0
-146 -140 346 0
147 140 358 0
147 -140 -358 0
-147 140 -358 0
-147 -140 358 0
148 140 374 0
148 -140 -374 0
-148 140 -374 0
-148 -140 374 0
150 149 162 0
150 -149 -162 0
-150 149 -162 0
-150 -149 162 0
151 149 238 0
151 -149 -238 0
-151 149 -238 0
-151 -149 238 0
152 149 265 0
152 -149 -265 0
-152 149 -265 0
-152 -149 265 0
153 149 308 0
153 -149 -308 0
-153 149 -308 0
-153 -149 308 0
154 149 339 0
154 -149 -339 0
-154 149 -339 0
-154 -149 339 0
155 149 346 0
155 -149 -346 0
-155 149 -346 0
-155 -149 346 0
156 149 351 0
156 -149 -351 0
-156 149 -351 0
-156 -149 351 0
157 149 381 0
157 -149 -381 0
-157 149 -381 0
-157 -149 381 0
158 149 383 0
158 -149 -383 0
-158 149 -383 0
-158 -149 383 0
159 149 386 0
159 -149 -386 0
-159 149 -386 0
-159 -149 386 0
160 149 396 0
160 -149 -396 0
-160 149 -396 0
-160 -149 396 0
161 149 398 0
161 -149 -398 0
-161 149 -398 0
-161 -149 398 0
163 162 182 0
163 -162 -182 0
-163 162 -182 0
-163 -162 182 0
164 162 272 0
164 -162 -272 0
-164 162 -272 0
-164 -162 272 0
165 162 301 0
165 -162 -301 0
-165 162 -301 0
-165 -162 301 0
166 162 313 0
166 -162 -313 0
-166 162 -313 0
-166 -162 313 0
167 162 317 0
167 -162 -317 0
-167 162 -317 0
-167 -162 317 0
168 162 326 0
168 -162 -326 0
-168 162 -326 0
-168 -162 326 0
169 162 339 0
169 -162 -339 0
-169 162 -339 0
-169 -162 339 0
170 162 365 0
170 -162 -365 0
-170 162 -365 0
-170 -162 365 0
171 162 383 0
171 -162 -383 0
-171 162 -383 0
-171 -162 383 0
172 162 388 0
172 -162 -388 0
-172 162 -388 0
-172 -162 388 0
173 162 394 0
173 -162 -394 0
-173 162 -394 0
-173 -162 394 0
174 162 396 0
174 -162 -396 0
-174 162 -396 0
-174 -162 396 0
175 162 398 0
175 -162 -398 0
-175 162 -398 0
-175 -162 398 0
177 176 265 0
177 -176 -265 0
-177 176 -265 0
-177 -176 265 0
178 176 301 0
178 -176 -301 0
-178 176 -301 0
-178 -176 301 0
179 176 362 0
179 -176 -362 0
-179 176 -362 0
-179 -176 362 0
180 176 365 0
180 -176 -365 0
-180 176 -365 0
-180 -176 365 0
181 176 370 0
181 -176 -370 0
-181 176 -370 0
-181 -176 370 0
183 182 213 0
183 -182 -213 0
-183 182 -213 0
-183 -182 213 0
184 182 225 0
184 -182 -225 0
-184 182 -225 0
-184 -182 225 0
185 182 238 0
185 -182 -238 0
-185 182 -238 0
-185 -182 238 0
186 182 250 0
186 -182 -250 0
-186 182 -250 0
-186 -182 250 0
187 182 272 0
187 -182 -272 0
-187 182 -272 0
-187 -182 272 0
188 182 291 0
188 -182 -291 0
-188 182 -291 0
-188 -182 291 0
189 182 301 0
189 -182 -301 0
-189 182 -301 0
-189 -182 301 0
190 182 326 0
190 -182 -326 0
-190 182 -326 0
-190 -182 326 0
191 182 339 0
191 -182 -339 0
-191 182 -339 0
-191 -182 339 0
192 182 346 0
192 -182 -346 0
-192 182 -346 0
-192 -182 346 0
193 182 374 0
193 -182 -374 0
-193 182 -374 0
-193 -182 374 0
194 182 396 0
194 -182 -396 0
-194 182 -396 0
-194 -182 396 0
195 182 400 0
195 -182 -400 0
-195 182 -400 0
-195 -182 400 0
197 196 272 0
197 -196 -272 0
-197 196 -272 0
-197 -196 272 0
198 196 286 0
198 -196 -286 0
-198 196 -286 0
-198 -196 286 0
199 196 339 0
199 -196 -339 0
-199 196 -339 0
-199 -196 339 0
200 196 358 0
200 -196 -358 0
-200 196 -358 0
-200 -196 358 0
201 196 391 0
201 -196 -391 0
-201 196 -391 0
-201 -196 391 0
202 196 396 0
202 -196 -396 0
-202 196 -396 0
-202 -196 396 0
203 196 398 0
203 -196 -398 0
-203 196 -398 0
-203 -196 398 0
205 204 213 0
205 -204 -213 0
-205 204 -213 0
-205 -204 213 0
206 204 258 0
206 -204 -258 0
-206 204 -258 0
-206 -204 258 0
207 204 265 0
207 -204 -265 0
-207 204 -265 0
-207 -204 265 0
208 204 301 0
208 -204 -301 0
-208 204 -301 0
-208 -204 301 0
209 204 326 0
209 -204 -326 0
-209 204 -326 0
-209 -204 326 0
210 204 365 0
210 -204 -365 0
-210 204 -365 0
-210 -204 365 0
211 204 381 0
211 -204 -381 0
-211 204 -381 0
-211 -204 381 0
212 204 396 0
212 -204 -396 0
-212 204 -396 0
-212 -204 396 0
214 213 258 0
214 -213 -258 0
-214 213 -258 0
-214 -213 258 0
215 213 265 0
215 -213 -265 0
-215 213 -265 0
-215 -213 265 0
216 213 291 0
216 -213 -291 0
-216 213 -291 0
-216 -213 291 0
217 213 351 0
217 -213 -351 0
-217 213 -351 0
-217 -213 351 0
218 213 365 0
218 -213 -365 0
-218 213 -365 0
-218 -213 365 0
219 213 370 0
219 -213 -370 0
-219 213 -370 0
-219 -213 370 0
220 213 374 0
220 -213 -374 0
-220 213 -374 0
-220 -213 374 0
221 213 383 0
221 -213 -383 0
-221 213 -383 0
-221 -213 383 0
222 213 386 0
222 -213 -386 0
-222 213 -386 0
-222 -213 386 0
223 213 396 0
223 -213 -396 0
-223 213 -396 0
-223 -213 396 0
224 213 400 0
224 -213 -400 0
-224 213 -400 0
-224 -213 400 0
226 225 250 0
226 -225 -250 0
-226 225 -250 0
-226 -225 250 0
227 225 258 0
227 -225 -258 0
-227 225 -258 0
-227 -225 258 0
228 225 278 0
228 -225 -278 0
-228 225 -278 0
-228 -225 278 0
229 225 291 0
229 -225 -291 0
-229 225 -291 0
-229 -225 291 0
230 225 308 0
230 -225 -308 0
-230 225 -308 0
-230 -225 308 0
231 225 339 0
231 -225 -339 0
-231 225 -339 0
-231 -225 339 0
232 225 351 0
232 -225 -351 0
-232 225 -351 0
-232 -225 351 0
233 225 362 0
233 -225 -362 0
-233 225 -362 0
-233 -225 362 0
234 225 365 0
234 -225 -365 0
-234 225 -365 0
-234 -225 365 0
235 225 381 0
235 -225 -381 0
-235 225 -381 0
-235 -225 381 0
236 225 391 0
236 -225 -391 0
-236 225 -391 0
-236 -225 391 0
237 225 398 0
237 -225 -398 0
-237 225 -398 0
-237 -225 398 0
239 238 258 0
239 -238 -258 0
-239 238 -258 0
-239 -238 258 0
240 238 291 0
240 -238 -291 0
-240 238 -291 0
-240 -238 291 0
241 238 308 0
241 -238 -308 0
-241 238 -308 0
-241 -238 308 0
242 238 317 0
242 -238 -317 0
-242 238 -317 0
-242 -238 317 0
243 238 326 0
243 -238 -326 0
-243 238 -326 0
-243 -238 326 0
244 238 339 0
244 -238 -339 0
-244 238 -339 0
-244 -238 339 0
245 238 362 0
245 -238 -362 0
-245 238 -362 0
-245 -238 362 0
246 238 386 0
246 -238 -386 0
-246 238 -386 0
-246 -238 386 0
247 238 388 0
247 -238 -388 0
-247 238 -388 0
-247 -238 388 0
248 238 394 0
248 -238 -394 0
-248 238 -394 0
-248 -238 394 0
249 238 396 0
249 -238 -396 0
-249 238 -396 0
-249 -238 396 0
251 250 258 0
251 -250 -258 0
-251 250 -258 0
-251 -250 258 0
252 250 313 0
252 -250 -313 0
-252 250 -313 0
-252 -250 313 0
253 250 317 0
253 -250 -317 0
-253 250 -317 0
-253 -250 317 0
254 250 386 0
254 -250 -386 0
-254 250 -386 0
-254 -250 386 0
255 250 391 0
255 -250 -391 0
-255 250 -391 0
-255 -250 391 0
256 250 394 0
256 -250 -394 0
-256 250 -394 0
-256 -250 394 0
257 250 396 0
257 -250 -396 0
-257 250 -396 0
-257 -250 396 0
259 258 265 0
259 -258 -265 0
-259 258 -265 0
-259 -258 265 0
260 258 291 0
260 -258 -291 0
-260 258 -291 0
-260 -258 291 0
261 258 358 0
261 -258 -358 0
-261 258 -358 0
-261 -258 358 0
262 258 365 0
262 -258 -365 0
-262 258 -365 0
-262 -258 365 0
263 258 378 0
263 -258 -378 0
-263 258 -378 0
-263 -258 378 0
264 258 386 0
264 -258 -386 0
-264 258 -386 0
-264 -258 386 0
266 265 317 0
266 -265 -317 0
-266 265 -317 0
-266 -265 317 0
267 265 326 0
267 -265 -326 0
-267 265 -326 0
-267 -265 326 0
268 265 339 0
268 -265 -339 0
-268 265 -339 0
-268 -265 339 0
269 265 346 0
269 -265 -346 0
-269 265 -346 0
-269 -265 346 0
270 265 351 0
270 -265 -351 0
-270 265 -351 0
-270 -265 351 0
271 265 358 0
271 -265 -358 0
-271 265 -358 0
-271 -265 358 0
273 272 326 0
273 -272 -326 0
-273 272 -326 0
-273 -272 326 0
274 272 358 0
274 -272 -358 0
-274 272 -358 0
-274 -272 358 0
275 272 388 0
275 -272 -388 0
-275 272 -388 0
-275 -272 388 0
276 272 391 0
276 -272 -391 0
-276 272 -391 0
-276 -272 391 0
277 272 398 0
277 -272 -398 0
-277 272 -398 0
-277 -272 398 0
279 278 313 0
279 -278 -313 0
-279 278 -313 0
-279 -278 313 0
280 278 339 0
280 -278 -339 0
-280 278 -339 0
-280 -278 339 0
281 278 346 0
281 -278 -346 0
-281 278 -346 0
-281 -278 346 0
282 278 351 0
282 -278 -351 0
-282 278 -351 0
-282 -278 351 0
283 278 370 0
283 -278 -370 0
-283 278 -370 0
-283 -278 370 0
284 278 374 0
284 -278 -374 0
-284 278 -374 0
-284 -278 374 0
285 278 398 0
285 -278 -398 0
-285 278 -398 0
-285 -278 398 0
287 286 326 0
287 -286 -326 0
-287 286 -326 0
-287 -286 326 0
288 286 351 0
288 -286 -351 0
-288 286 -351 0
-288 -286 351 0
289 286 396 0
289 -286 -396 0
-289 286 -396 0
-289 -286 396 0
290 286 398 0
290 -286 -398 0
-290 286 -398 0
-290 -286 398 0
292 291 301 0
292 -291 -301 0
-292 291 -301 0
-292 -291 301 0
293 291 313 0
293 -291 -313 0
-293 291 -313 0
-293 -291 313 0
294 291 326 0
294 -291 -326 0
-294 291 -326 0
-294 -291 326 0
295 291 339 0
295 -291 -339 0
-295 291 -339 0
-295 -291 339 0
296 291 362 0
296 -291 -362 0
-296 291 -362 0
-296 -291 362 0
297 291 370 0
297 -291 -370 0
-297 291 -370 0
-297 -291 370 0
298 291 378 0
298 -291 -378 0
-298 291 -378 0
-298 -291 378 0
299 291 386 0
299 -291 -386 0
-299 291 -386 0
-299 -291 386 0
300 291 391 0
300 -291 -391 0
-300 291 -391 0
-300 -291 391 0
302 301 326 0
302 -301 -326 0
-302 301 -326 0
-302 -301 326 0
303 301 358 0
303 -301 -358 0
-303 301 -358 0
-303 -301 358 0
304 301 370 0
304 -301 -370 0
-304 301 -370 0
-304 -301 370 0
305 301 383 0
305 -301 -383 0
-305 301 -383 0
-305 -301 383 0
306 301 391 0
306 -301 -391 0
-306 301 -391 0
-306 -301 391 0
307 301 400 0
307 -301 -400 0
-307 301 -400 0
-307 -301 400 0
309 308 313 0
309 -308 -313 0
-309 308 -313 0
-309 -308 313 0
310 308 326 0
310 -308 -326 0
-310 308 -326 0
-310 -308 326 0
311 308 358 0
311 -308 -358 0
-311 308 -358 0
-311 -308 358 0
312 308 388 0
312 -308 -388 0
-312 308 -388 0
-312 -308 388 0
314 313 362 0
314 -313 -362 0
-314 313 -362 0
-314 -313 362 0
315 313 378 0
315 -313 -378 0
-315 313 -378 0
-315 -313 378 0
316 313 381 0
316 -313 -381 0
-316 313 -381 0
-316 -313 381 0
318 317 326 0
318 -317 -326 0
-318 317 -326 0
-318 -317 326 0
319 317 346 0
319 -317 -346 0
-319 317 -346 0
-319 -317 346 0
320 317 351 0
320 -317 -351 0
-320 317 -351 0
-320 -317 351 0
321 317 358 0
321 -317 -358 0
-321 317 -358 0
-321 -317 358 0
322 317 362 0
322 -317 -362 0
-322 317 -362 0
-322 -317 362 0
323 317 365 0
323 -317 -365 0
-323 317 -365 0
-323 -317 365 0
324 317 383 0
324 -317 -383 0
-324 317 -383 0
-324 -317 383 0
325 317 398 0
325 -317 -398 0
-325 317 -398 0
-325 -317 398 0
327 326 339 0
327 -326 -339 0
-327 326 -339 0
-327 -326 339 0
328 326 346 0
328 -326 -346 0
-328 326 -346 0
-328 -326 346 0
329 326 362 0
329 -326 -362 0
-329 326 -362 0
-329 -326 362 0
330 326 365 0
330 -326 -365 0
-330 326 -365 0
-330 -326 365 0
331 326 378 0
331 -326 -378 0
-331 326 -378 0
-331 -326 378 0
332 326 381 0
332 -326 -381 0
-332 326 -381 0
-332 -326 381 0
333 326 383 0
333 -326 -383 0
-333 326 -383 0
-333 -326 383 0
334 326 386 0
334 -326 -386 0
-334 326 -386 0
-334 -326 386 0
335 326 391 0
335 -326 -391 0
-335 326 -391 0
-335 -326 391 0
336 326 394 0
336 -326 -394 0
-336 326 -394 0
-336 -326 394 0
337 326 396 0
337 -326 -396 0
-337 326 -396 0
-337 -326 396 0
338 326 398 0
338 -326 -398 0
-338 326 -398 0
-338 -326 398 0
340 339 351 0
340 -339 -351 0
-340 339 -351 0
-340 -339 351 0
341 339 358 0
341 -339 -358 0
-341 339 -358 0
-341 -339 358 0
342 339 370 0
342 -339 -370 0
-342 339 -370 0
-342 -339 370 0
343 339 381 0
343 -339 -381 0
-343 339 -381 0
-343 -339 381 0
344 339 386 0
344 -339 -386 0
-344 339 -386 0
-344 -339 386 0
345 339 388 0
345 -339 -388 0
-345 339 -388 0
-345 -339 388 0
347 346 358 0
347 -346 -358 0
-347 346 -358 0
-347 -346 358 0
348 346 383 0
348 -346 -383 0
-348 346 -383 0
-348 -346 383 0
349 346 388 0
349 -346 -388 0
-349 346 -388 0
-349 -346 388 0
350 346 391 0
350 -346 -391 0
-350 346 -391 0
-350 -346 391 0
352 351 370 0
352 -351 -370 0
-352 351 -370 0
-352 -351 370 0
353 351 374 0
353 -351 -374 0
-353 351 -374 0
-353 -351 374 0
354 351 383 0
354 -351 -383 0
-354 351 -383 0
-354 -351 383 0
355 351 386 0
355 -351 -386 0
-355 351 -386 0
-355 -351 386 0
356 351 391 0
356 -351 -391 0
-356 351 -391 0
-356 -351 391 0
357 351 400 0
357 -351 -400 0
-357 351 -400 0
-357 -351 400 0
359 358 365 0
359 -358 -365 0
-359 358 -365 0
-359 -358 365 0
360 358 378 0
360 -358 -378 0
-360 358 -378 0
-360 -358 378 0
361 358 391 0
361 -358 -391 0
-361 358 -391 0
-361 -358 391 0
363 362 378 0
363 -362 -378 0
-363 362 -378 0
-363 -362 378 0
364 362 386 0
364 -362 -386 0
-364 362 -386 0
-364 -362 386 0
366 365 386 0
366 -365 -386 0
-366 365 -386 0
-366 -365 386 0
367 365 388 0
367 -365 -388 0
-367 365 -388 0
-367 -365 388 0
368 365 391 0
368 -365 -391 0
-368 365 -391 0
-368 -365 391 0
369 365 394 0
369 -365 -394 0
-369 365 -394 0
-369 -365 394 0
371 370 386 0
371 -370 -386 0
-371 370 -386 0
-371 -370 386 0
372 370 391 0
372 -370 -391 0
-372 370 -391 0
-372 -370 391 0
373 370 394 0
373 -370 -394 0
-373 370 -394 0
-373 -370 394 0
375 374 386 0
375 -374 -386 0
-375 374 -386 0
-375 -374 386 0
376 374 394 0
376 -374 -394 0
-376 374 -394 0
-376 -374 394 0
377 374 398 0
377 -374 -398 0
-377 374 -398 0
-377 -374 398 0
379 378 381 0
379 -378 -381 0
-379 378 -381 0
-379 -378 381 0
380 378 388 0
380 -378 -388 0
-380 378 -388 0
-380 -378 388 0
382 381 388 0
382 -381 -388 0
-382 381 -388 0
-382 -381 388 0
384 383 394 0
384 -383 -394 0
-384 383 -394 0
-384 -383 394 0
385 383 398 0
385 -383 -398 0
-385 383 -398 0
-385 -383 398 0
387 386 388 0
387 -386 -388 0
-387 386 -388 0
-387 -386 388 0
389 388 391 0
389 -388 -391 0
-389 388 -391 0
-389 -388 391 0
390 388 396 0
390 -388 -396 0
-390 388 -396 0
-390 -388 396 0
392 391 396 0
392 -391 -396 0
-392 391 -396 0
-392 -391 396 0
393 391 398 0
393 -391 -398 0
-393 391 -398 0
-393 -391 398 0
395 394 398 0
395 -394 -398 0
-395 394 -398 0
-395 -394 398 0
397 396 398 0
397 -396 -398 0
-397 396 -398 0
-397 -396 398 0
399 398 400 0
399 -398 -400 0
-399 398 -400 0
-399 -398 400 0
